S = 5;
start = [|0,0,0,0,18,0,0,5,0,0,0,0,0,2,0,0,0,21,0,0,19,0,0,13,4|
12,4,13,1,0,0,0,0,0,0,0,0,0,0,16,8,3,0,0,10,0,0,0,0,0|
0,0,0,19,0,0,7,0,0,4,0,21,0,3,0,0,0,0,14,0,0,0,0,6,0|
0,0,0,0,0,0,0,17,1,0,9,0,0,13,0,0,0,0,0,0,0,0,0,0,11|
0,3,0,0,0,0,12,21,0,0,0,0,18,0,0,0,0,0,0,0,0,0,0,0,0|
7,24,0,0,0,0,0,25,2,0,0,13,17,0,0,0,0,12,0,0,0,0,6,0,1|
0,0,0,18,0,0,0,0,0,0,0,0,0,0,0,0,0,0,0,0,0,2,0,0,0|
0,0,0,0,11,0,0,0,7,0,0,0,0,0,0,0,24,5,0,1,0,0,0,0,0|
0,0,0,0,0,0,0,0,0,0,0,0,0,0,0,0,25,0,0,0,0,0,0,0,0|
0,0,0,0,0,13,16,12,0,0,0,15,0,0,23,22,2,0,0,0,0,0,0,0,19|
0,0,0,11,0,0,0,0,12,0,7,3,0,0,0,18,0,6,0,9,10,0,25,0,0|
0,0,0,0,0,7,0,0,0,0,18,0,0,0,25,0,0,0,0,0,22,0,0,2,0|
0,0,0,0,0,0,0,0,0,0,0,17,12,24,0,0,0,0,25,0,0,0,0,0,0|
15,13,0,0,10,0,0,0,3,0,0,6,0,0,22,5,0,4,0,21,0,16,0,0,12|
0,0,24,0,0,0,0,0,6,0,0,0,0,0,0,0,0,0,0,0,20,0,0,8,0|
0,0,0,0,20,0,9,16,0,0,0,19,0,0,24,0,0,0,0,0,0,25,0,0,0|
0,0,0,0,5,20,0,0,0,0,25,0,0,14,0,0,0,0,4,0,0,19,0,0,0|
0,0,9,0,19,21,0,0,0,0,0,0,16,0,0,0,0,15,0,5,0,0,14,0,0|
0,14,0,0,0,0,0,7,0,0,3,0,20,0,0,0,0,0,0,0,0,0,0,0,15|
0,0,0,0,15,0,23,0,0,0,4,0,0,7,0,24,13,0,0,25,18,0,0,0,0|
20,1,0,0,16,12,21,0,0,0,0,0,10,15,0,0,0,0,0,0,0,0,0,19,0|
0,7,0,0,0,0,0,0,0,16,0,0,0,0,0,0,0,0,0,11,0,6,0,0,0|
0,12,0,0,0,0,0,0,0,7,11,0,0,0,0,0,0,0,21,0,0,0,0,0,0|
0,0,19,0,0,0,0,8,20,0,0,0,0,0,0,0,18,0,0,0,4,0,0,0,0|
0,0,0,0,0,0,0,0,0,0,0,25,0,0,7,14,0,0,0,16,0,0,13,0,10|];